p cnf 149 496
c t mc
4 2 0
4 -3 0
-2 3 -4 0
-5 1 0
-5 4 0
-1 -4 5 0
-5 6 -7 0
5 -6 -7 0
-5 -6 7 0
5 6 7 0
12 10 0
12 11 0
-10 -11 -12 0
13 -9 0
13 -12 0
9 12 -13 0
-14 -8 0
-14 -13 0
8 13 14 0
-19 -17 0
-19 -18 0
17 18 19 0
-20 -16 0
-20 -19 0
16 19 20 0
-15 -20 -21 0
15 20 -21 0
-15 20 21 0
15 -20 21 0
22 5 0
22 19 0
-5 -19 -22 0
23 18 0
23 -16 0
-18 16 -23 0
15 -23 -24 0
-15 23 -24 0
15 23 24 0
-15 -23 24 0
23 24 -25 0
-23 -24 -25 0
23 -24 25 0
-23 24 25 0
26 -13 0
26 -18 0
13 18 -26 0
-27 -25 0
-27 26 0
25 -26 27 0
-28 22 0
-28 -27 0
-22 27 28 0
21 28 -29 0
-21 -28 -29 0
21 -28 29 0
-21 28 29 0
-30 -14 0
-30 -29 0
14 29 30 0
12 -11 -32 0
-12 11 -32 0
12 11 32 0
-12 -11 32 0
-34 32 0
-34 33 0
-32 -33 34 0
31 34 -35 0
-31 -34 -35 0
31 -34 35 0
-31 34 35 0
-36 35 0
-36 -15 0
-35 15 36 0
-38 16 0
-38 -26 0
-16 26 38 0
39 37 0
39 38 0
-37 -38 -39 0
40 39 0
40 -2 0
-39 2 -40 0
-41 13 0
-41 40 0
-13 -40 41 0
-42 -36 0
-42 41 0
36 -41 42 0
-5 42 -43 0
5 -42 -43 0
-5 -42 43 0
5 42 43 0
-46 45 0
-46 12 0
-45 -12 46 0
47 44 0
47 -46 0
-44 46 -47 0
48 -9 0
48 44 0
9 -44 -48 0
-49 48 0
-49 48 0
-48 49 0
-50 -47 0
-50 -49 0
47 49 50 0
-51 -43 0
-51 -50 0
43 50 51 0
30 -51 -52 0
-30 51 -52 0
30 51 52 0
-30 -51 52 0
53 7 0
53 -52 0
-7 52 -53 0
54 37 0
54 -23 0
-37 23 -54 0
-55 54 0
-55 33 0
-54 -33 55 0
-53 -55 -56 0
53 55 -56 0
-53 55 56 0
53 -55 56 0
-57 -38 0
-57 44 0
38 -44 57 0
-58 5 -59 0
58 -5 -59 0
-58 -5 59 0
58 5 59 0
-13 11 -60 0
13 -11 -60 0
-13 -11 60 0
13 11 60 0
-59 -60 -61 0
59 60 -61 0
-59 60 61 0
59 -60 61 0
-62 61 0
-62 32 0
-61 -32 62 0
-63 -57 0
-63 -62 0
57 62 63 0
64 -56 0
64 -63 0
56 63 -64 0
-66 65 0
-66 -3 0
-65 3 66 0
-67 -13 0
-67 -66 0
13 66 67 0
-68 -15 0
-68 16 0
15 -16 68 0
69 67 0
69 68 0
-67 -68 -69 0
-45 -6 -70 0
45 6 -70 0
-45 6 70 0
45 -6 70 0
71 -70 0
71 -1 0
70 1 -71 0
-72 -71 0
-72 -13 0
71 13 72 0
-73 -69 0
-73 -72 0
69 72 73 0
75 74 0
75 -59 0
-74 59 -75 0
-76 -9 0
-76 -16 0
9 16 76 0
77 8 0
77 2 0
-8 -2 -77 0
78 -76 0
78 77 0
76 -77 -78 0
79 75 0
79 -78 0
-75 78 -79 0
80 -44 0
80 -31 0
44 31 -80 0
-81 -33 0
-81 19 0
33 -19 81 0
-82 80 0
-82 81 0
-80 -81 82 0
-16 82 -83 0
16 -82 -83 0
-16 -82 83 0
16 82 83 0
84 -34 0
84 58 0
34 -58 -84 0
-41 -84 -85 0
41 84 -85 0
-41 84 85 0
41 -84 85 0
86 -18 0
86 -85 0
18 85 -86 0
-87 -83 0
-87 86 0
83 -86 87 0
-88 -79 0
-88 -87 0
79 87 88 0
89 -73 0
89 88 0
73 -88 -89 0
90 64 0
90 -89 0
-64 89 -90 0
91 -46 0
91 58 0
46 -58 -91 0
-92 -31 0
-92 34 0
31 -34 92 0
-93 -91 0
-93 -92 0
91 92 93 0
-80 -93 -94 0
80 93 -94 0
-80 93 94 0
80 -93 94 0
95 6 0
95 26 0
-6 -26 -95 0
-95 35 -96 0
95 -35 -96 0
-95 -35 96 0
95 35 96 0
97 -66 0
97 96 0
66 -96 -97 0
-98 -94 0
-98 -97 0
94 97 98 0
-99 -80 0
-99 2 0
80 -2 99 0
-99 18 -100 0
99 -18 -100 0
-99 -18 100 0
99 18 100 0
101 -98 0
101 100 0
98 -100 -101 0
102 25 0
102 13 0
-25 -13 -102 0
103 35 0
103 8 0
-35 -8 -103 0
-102 -103 -104 0
102 103 -104 0
-102 103 104 0
102 -103 104 0
105 3 0
105 -44 0
-3 44 -105 0
16 -105 -106 0
-16 105 -106 0
16 105 106 0
-16 -105 106 0
107 -11 0
107 106 0
11 -106 -107 0
108 -104 0
108 107 0
104 -107 -108 0
-46 -45 -109 0
46 45 -109 0
-46 45 109 0
46 -45 109 0
-110 18 0
-110 -70 0
-18 70 110 0
111 109 0
111 110 0
-109 -110 -111 0
1 -106 -112 0
-1 106 -112 0
1 106 112 0
-1 -106 112 0
113 38 0
113 112 0
-38 -112 -113 0
114 111 0
114 113 0
-111 -113 -114 0
-115 108 0
-115 -114 0
-108 114 115 0
32 -3 -116 0
-32 3 -116 0
32 3 116 0
-32 -3 116 0
-117 115 0
-117 116 0
-115 -116 117 0
-118 -47 0
-118 -11 0
47 11 118 0
-119 -93 0
-119 -118 0
93 118 119 0
96 119 -120 0
-96 -119 -120 0
96 -119 120 0
-96 119 120 0
117 120 -121 0
-117 -120 -121 0
117 -120 121 0
-117 120 121 0
-70 119 -122 0
70 -119 -122 0
-70 -119 122 0
70 119 122 0
-123 19 0
-123 12 0
-19 -12 123 0
-124 122 0
-124 123 0
-122 -123 124 0
-121 -124 -125 0
121 124 -125 0
-121 124 125 0
121 -124 125 0
-126 -101 0
-126 125 0
101 -125 126 0
10 -71 -127 0
-10 71 -127 0
10 71 127 0
-10 -71 127 0
-128 82 -129 0
128 -82 -129 0
-128 -82 129 0
128 82 129 0
130 -65 0
130 129 0
65 -129 -130 0
-131 127 0
-131 -130 0
-127 130 131 0
11 -15 -132 0
-11 15 -132 0
11 15 132 0
-11 -15 132 0
133 -131 0
133 -132 0
131 132 -133 0
134 -2 0
134 8 0
2 -8 -134 0
-135 48 0
-135 15 0
-48 -15 135 0
-136 61 0
-136 -135 0
-61 135 136 0
137 -1 0
137 -44 0
1 44 -137 0
-138 15 0
-138 -137 0
-15 137 138 0
-139 -11 0
-139 48 0
11 -48 139 0
-140 3 0
-140 139 0
-3 -139 140 0
-141 138 0
-141 140 0
-138 -140 141 0
142 136 0
142 -141 0
-136 141 -142 0
49 -45 -143 0
-49 45 -143 0
49 45 143 0
-49 -45 143 0
-144 -143 0
-144 -103 0
143 103 144 0
145 -142 0
145 144 0
142 -144 -145 0
146 134 0
146 145 0
-134 -145 -146 0
147 -133 0
147 146 0
133 -146 -147 0
148 -126 0
148 147 0
126 -147 -148 0
-149 -90 0
-149 148 0
90 -148 149 0
117 73 111 92 0
-89 97 73 9 -13 0
83 60 -116 110 -75 -3 0
78 -70 -92 0
-13 116 -85 -50 80 88 46 30 -129 0
-69 4 26 -114 1 6 -136 0
82 17 -68 48 -139 -96 0
133 -32 145 -84 -147 116 36 0
72 3 23 75 -111 -96 -124 56 -1 0
149 -74 0
-87 -99 34 147 0
73 102 -40 57 -36 88 -3 62 78 0
-89 97 -118 -126 53 -11 0
-85 -137 14 -52 -132 8 82 -18 -129 -33 0
97 -16 74 -110 38 -139 -98 100 33 0
-47 -10 0
-61 55 -27 94 0
-26 49 -32 -56 -100 18 -135 144 0
-44 -63 0
24 74 18 0
-143 51 -69 -110 -132 42 -65 -53 -6 130 0
-39 -63 -137 -98 76 0
-12 -58 -6 0
-141 -6 0
76 12 71 -51 -82 -74 58 105 15 0
136 -20 59 -42 -70 0
10 -2 -50 11 52 6 47 -109 -21 0
-97 68 -33 122 13 -70 -75 -149 51 0
26 2 -38 -28 0
-18 47 110 93 0
-5 -129 -16 -4 72 -11 49 74 -66 69 0
-101 -133 -84 -141 -90 70 -113 0
1 -84 142 25 44 128 0
86 -1 138 -8 131 -119 0
36 -14 136 0
-46 -56 114 -79 -103 -38 -127 0
100 -143 66 0
35 86 144 15 -9 12 -129 136 -11 0
70 -33 -48 -65 -12 44 111 66 0
-49 -147 0
13 3 -111 135 -62 102 72 0
32 -48 -140 -30 134 -72 -98 -17 -88 -35 0
84 -83 -97 -66 17 0
12 62 8 -146 27 -78 138 42 70 120 0
-119 121 -90 48 87 140 135 70 0
79 -113 -98 0
86 142 79 -24 -105 121 -26 62 -96 0
65 -120 -101 -103 -116 0
-25 107 137 103 129 0
-23 80 5 0
-9 128 38 -86 -47 0
-74 -75 -22 92 -76 49 -86 17 0
147 12 -75 148 97 -23 89 35 20 0
-79 138 -84 77 -68 113 -83 -144 0
-25 -10 -78 0
21 -74 0
138 5 59 35 -26 0
-108 85 -82 121 -89 12 92 0
-86 94 -48 -13 73 0
13 42 -5 -143 0
-18 94 -81 77 45 0
-84 119 149 55 113 79 -109 57 58 -111 0
61 -102 -46 0
55 -126 -122 54 -32 0
-125 -131 -65 -123 101 72 -126 0
40 148 -60 63 31 26 32 -62 -18 0
27 115 30 73 101 -64 104 69 0
37 44 147 -105 -42 95 0
-112 -72 -46 0
68 -11 -94 0
-73 111 -101 -13 56 8 -1 -70 147 124 0
-68 95 143 66 100 70 5 -110 -83 51 0
61 67 0
-27 -112 107 57 -74 21 -29 -144 89 0
50 27 -125 -97 -74 -117 0
-55 149 0
-3 146 73 0
-112 -96 147 -63 -3 -30 0
48 -130 82 -144 93 108 -31 0
149 0
